************************************************************************
file with basedata            : me32_.bas
initial value random generator: 793826294
************************************************************************
projects                      :  1
jobs (incl. supersource/sink ):  18
horizon                       :  116
RESOURCES
  - renewable                 :  2   R
  - nonrenewable              :  0   N
  - doubly constrained        :  0   D
************************************************************************
PROJECT INFORMATION:
pronr.  #jobs rel.date duedate tardcost  MPM-Time
    1     16      0       17       10       17
************************************************************************
PRECEDENCE RELATIONS:
jobnr.    #modes  #successors   successors
   1        1          3           2   3   4
   2        3          1           9
   3        3          3           5   6   7
   4        3          2          10  11
   5        3          3           8   9  10
   6        3          1          16
   7        3          3           8   9  11
   8        3          3          13  14  15
   9        3          2          14  15
  10        3          2          13  15
  11        3          2          12  14
  12        3          1          13
  13        3          2          16  17
  14        3          2          16  17
  15        3          1          18
  16        3          1          18
  17        3          1          18
  18        1          0        
************************************************************************
REQUESTS/DURATIONS:
jobnr. mode duration  R 1  R 2
------------------------------------------------------------------------
  1      1     0       0    0
  2      1     4       7    8
         2     4       5   10
         3     7       4    7
  3      1     2       9    3
         2     4       4    3
         3     7       2    3
  4      1     3       6   10
         2     5       5    9
         3     7       4    9
  5      1     1       8    5
         2     7       6    5
         3    10       2    5
  6      1     5       8    7
         2     8       3    7
         3     8       4    6
  7      1     5       6   10
         2     8       6    9
         3    10       5    9
  8      1     1       8    8
         2     2       8    7
         3     4       7    4
  9      1     3      10    5
         2     8       6    4
         3     9       4    3
 10      1     1       9    5
         2     1       7    7
         3     4       6    3
 11      1     1       4    1
         2     6       3    1
         3     7       1    1
 12      1     2       8    7
         2     3       8    6
         3     9       5    4
 13      1     3       6    8
         2     5       5    7
         3     6       5    2
 14      1     2       5    6
         2     3       4    6
         3     9       2    5
 15      1     7       6    5
         2     7       7    4
         3     8       1    4
 16      1     2       9    8
         2     3       7    7
         3     4       6    6
 17      1     1       7    6
         2     2       5    4
         3     7       4    4
 18      1     0       0    0
************************************************************************
RESOURCEAVAILABILITIES:
  R 1  R 2
   35   42
************************************************************************
